tema2/sat_in/bonus/custom.wcnf
p wcnf 4 8 9
9 1 2 0
9 2 3 0
9 2 4 0
9 3 4 0
3 -1 0
1 -2 0
2 -3 0
2 -4 0
