tema2/sat_in/task1/custom.cnf
p cnf 16 44
1 2 3 4 0
5 6 7 8 0
9 10 11 12 0
13 14 15 16 0

-1 -2 0
-2 -3 0
-3 -4 0
-5 -6 0
-6 -7 0
-7 -8 0
-9 -10 0
-10 -11 0
-11 -12 0
-13 -14 0
-14 -15 0
-15 -16 0

-1 -5 0
-2 -6 0
-3 -7 0
-4 -8 0
-1 -9 0
-2 -10 0
-3 -11 0
-4 -12 0
-1 -13 0
-2 -14 0
-3 -15 0
-4 -16 0
-5 -9 0
-6 -10 0
-7 -11 0
-8 -12 0
-5 -13 0
-6 -14 0
-7 -15 0
-8 -16 0
-9 -13 0
-10 -14 0
-11 -15 0
-12 -16 0
